% Instance for pentominoes model generated using https://github.com/zayenz/minizinc-pentominoes-generator
% Instance generated for board size 15 with 5 tiles using 17 as seed
% Generated board
%    333333333333334
%    333333333333334
%    333333333333334
%    333333333333444
%    333333333334444
%    333333333344444
%    333333333344444
%    224443333344444
%    222443433344444
%    222444444444444
%    222444444444444
%    111445555554444
%    111445555554444
%    111445555555544
%    111445555555544

size = 15;
tiles = 5;
expressions = [
    "( ([2 3 4 5 6]* 1{3} [2 3 4 5 6]{12} [2 3 4 5 6] 1{3} [2 3 4 5 6]{12} [2 3 4 5 6] 1{3} [2 3 4 5 6]{12} [2 3 4 5 6] 1{3}  [2 3 4 5 6]*) | ([2 3 4 5 6]* 1{4} [2 3 4 5 6]{11} [2 3 4 5 6] 1{4} [2 3 4 5 6]{11} [2 3 4 5 6] 1{4}  [2 3 4 5 6]*) | ([2 3 4 5 6]* 1{3} [2 3 4 5 6] [2 3 4 5 6]{12} 1{3} [2 3 4 5 6] [2 3 4 5 6]{12} 1{3} [2 3 4 5 6] [2 3 4 5 6]{12} 1{3}  [2 3 4 5 6]*) | ([2 3 4 5 6]* 1{4} [2 3 4 5 6] [2 3 4 5 6]{11} 1{4} [2 3 4 5 6] [2 3 4 5 6]{11} 1{4}  [2 3 4 5 6]*) | ([2 3 4 5 6]* 1{3} [2 3 4 5 6] [2 3 4 5 6]{12} 1{3} [2 3 4 5 6] [2 3 4 5 6]{12} 1{3} [2 3 4 5 6] [2 3 4 5 6]{12} 1{3}  [2 3 4 5 6]*) | ([2 3 4 5 6]* 1{4} [2 3 4 5 6] [2 3 4 5 6]{11} 1{4} [2 3 4 5 6] [2 3 4 5 6]{11} 1{4}  [2 3 4 5 6]*) | ([2 3 4 5 6]* 1{3} [2 3 4 5 6]{12} [2 3 4 5 6] 1{3} [2 3 4 5 6]{12} [2 3 4 5 6] 1{3} [2 3 4 5 6]{12} [2 3 4 5 6] 1{3}  [2 3 4 5 6]*) | ([2 3 4 5 6]* 1{4} [2 3 4 5 6]{11} [2 3 4 5 6] 1{4} [2 3 4 5 6]{11} [2 3 4 5 6] 1{4}  [2 3 4 5 6]*) )",
    "( ([1 3 4 5 6]* 2{2} [1 3 4 5 6]{13} [1 3 4 5 6] 2{3} [1 3 4 5 6]{12} [1 3 4 5 6] 2{3} [1 3 4 5 6]{12} [1 3 4 5 6] 2{3}  [1 3 4 5 6]*) | ([1 3 4 5 6]* 2{4} [1 3 4 5 6]{7} [1 3 4 5 6] [1 3 4 5 6]{4} 2{4} [1 3 4 5 6]{7} [1 3 4 5 6] [1 3 4 5 6]{4} 2{3}  [1 3 4 5 6]*) | ([1 3 4 5 6]* 2{3} [1 3 4 5 6] [1 3 4 5 6]{12} 2{3} [1 3 4 5 6] [1 3 4 5 6]{12} 2{3} [1 3 4 5 6] [1 3 4 5 6]{13} 2{2}  [1 3 4 5 6]*) | ([1 3 4 5 6]* 2{3} [1 3 4 5 6]{4} [1 3 4 5 6] [1 3 4 5 6]{7} 2{4} [1 3 4 5 6]{4} [1 3 4 5 6] [1 3 4 5 6]{7} 2{4}  [1 3 4 5 6]*) | ([1 3 4 5 6]* 2{2} [1 3 4 5 6] [1 3 4 5 6]{12} 2{3} [1 3 4 5 6] [1 3 4 5 6]{12} 2{3} [1 3 4 5 6] [1 3 4 5 6]{12} 2{3}  [1 3 4 5 6]*) | ([1 3 4 5 6]* 2{4} [1 3 4 5 6]{4} [1 3 4 5 6] [1 3 4 5 6]{7} 2{4} [1 3 4 5 6]{4} [1 3 4 5 6] [1 3 4 5 6]{8} 2{3}  [1 3 4 5 6]*) | ([1 3 4 5 6]* 2{3} [1 3 4 5 6]{12} [1 3 4 5 6] 2{3} [1 3 4 5 6]{12} [1 3 4 5 6] 2{3} [1 3 4 5 6]{12} [1 3 4 5 6] 2{2}  [1 3 4 5 6]*) | ([1 3 4 5 6]* 2{3} [1 3 4 5 6]{8} [1 3 4 5 6] [1 3 4 5 6]{4} 2{4} [1 3 4 5 6]{7} [1 3 4 5 6] [1 3 4 5 6]{4} 2{4}  [1 3 4 5 6]*) )",
    "( ([1 2 4 5 6]* 3{14} [1 2 4 5 6]{1} [1 2 4 5 6] 3{14} [1 2 4 5 6]{1} [1 2 4 5 6] 3{14} [1 2 4 5 6]{1} [1 2 4 5 6] 3{12} [1 2 4 5 6]{3} [1 2 4 5 6] 3{11} [1 2 4 5 6]{4} [1 2 4 5 6] 3{10} [1 2 4 5 6]{5} [1 2 4 5 6] 3{10} [1 2 4 5 6]{5} [1 2 4 5 6] [1 2 4 5 6]{5} 3{5} [1 2 4 5 6]{5} [1 2 4 5 6] [1 2 4 5 6]{5} 3{1} [1 2 4 5 6]{1} 3{3}  [1 2 4 5 6]*) | ([1 2 4 5 6]* 3{7} [1 2 4 5 6] [1 2 4 5 6]{8} 3{7} [1 2 4 5 6] [1 2 4 5 6]{8} 3{7} [1 2 4 5 6] [1 2 4 5 6]{8} 3{7} [1 2 4 5 6] [1 2 4 5 6]{8} 3{7} [1 2 4 5 6] [1 2 4 5 6]{6} 3{9} [1 2 4 5 6] [1 2 4 5 6]{7} 3{8} [1 2 4 5 6] [1 2 4 5 6]{6} 3{9} [1 2 4 5 6] [1 2 4 5 6]{6} 3{9} [1 2 4 5 6] [1 2 4 5 6]{6} 3{9} [1 2 4 5 6] [1 2 4 5 6]{10} 3{5} [1 2 4 5 6] [1 2 4 5 6]{11} 3{4} [1 2 4 5 6] [1 2 4 5 6]{12} 3{3} [1 2 4 5 6] [1 2 4 5 6]{12} 3{3}  [1 2 4 5 6]*) | ([1 2 4 5 6]* 3{3} [1 2 4 5 6]{1} 3{1} [1 2 4 5 6]{5} [1 2 4 5 6] [1 2 4 5 6]{5} 3{5} [1 2 4 5 6]{5} [1 2 4 5 6] [1 2 4 5 6]{5} 3{10} [1 2 4 5 6] [1 2 4 5 6]{5} 3{10} [1 2 4 5 6] [1 2 4 5 6]{4} 3{11} [1 2 4 5 6] [1 2 4 5 6]{3} 3{12} [1 2 4 5 6] [1 2 4 5 6]{1} 3{14} [1 2 4 5 6] [1 2 4 5 6]{1} 3{14} [1 2 4 5 6] [1 2 4 5 6]{1} 3{14}  [1 2 4 5 6]*) | ([1 2 4 5 6]* 3{3} [1 2 4 5 6]{12} [1 2 4 5 6] 3{3} [1 2 4 5 6]{12} [1 2 4 5 6] 3{4} [1 2 4 5 6]{11} [1 2 4 5 6] 3{5} [1 2 4 5 6]{10} [1 2 4 5 6] 3{9} [1 2 4 5 6]{6} [1 2 4 5 6] 3{9} [1 2 4 5 6]{6} [1 2 4 5 6] 3{9} [1 2 4 5 6]{6} [1 2 4 5 6] 3{8} [1 2 4 5 6]{7} [1 2 4 5 6] 3{9} [1 2 4 5 6]{6} [1 2 4 5 6] 3{7} [1 2 4 5 6]{8} [1 2 4 5 6] 3{7} [1 2 4 5 6]{8} [1 2 4 5 6] 3{7} [1 2 4 5 6]{8} [1 2 4 5 6] 3{7} [1 2 4 5 6]{8} [1 2 4 5 6] 3{7}  [1 2 4 5 6]*) | ([1 2 4 5 6]* 3{14} [1 2 4 5 6] [1 2 4 5 6]{1} 3{14} [1 2 4 5 6] [1 2 4 5 6]{1} 3{14} [1 2 4 5 6] [1 2 4 5 6]{3} 3{12} [1 2 4 5 6] [1 2 4 5 6]{4} 3{11} [1 2 4 5 6] [1 2 4 5 6]{5} 3{10} [1 2 4 5 6] [1 2 4 5 6]{5} 3{10} [1 2 4 5 6] [1 2 4 5 6]{5} 3{5} [1 2 4 5 6]{5} [1 2 4 5 6] [1 2 4 5 6]{5} 3{3} [1 2 4 5 6]{1} 3{1}  [1 2 4 5 6]*) | ([1 2 4 5 6]* 3{7} [1 2 4 5 6]{8} [1 2 4 5 6] 3{7} [1 2 4 5 6]{8} [1 2 4 5 6] 3{7} [1 2 4 5 6]{8} [1 2 4 5 6] 3{7} [1 2 4 5 6]{8} [1 2 4 5 6] 3{7} [1 2 4 5 6]{8} [1 2 4 5 6] 3{9} [1 2 4 5 6]{6} [1 2 4 5 6] 3{8} [1 2 4 5 6]{7} [1 2 4 5 6] 3{9} [1 2 4 5 6]{6} [1 2 4 5 6] 3{9} [1 2 4 5 6]{6} [1 2 4 5 6] 3{9} [1 2 4 5 6]{6} [1 2 4 5 6] 3{5} [1 2 4 5 6]{10} [1 2 4 5 6] 3{4} [1 2 4 5 6]{11} [1 2 4 5 6] 3{3} [1 2 4 5 6]{12} [1 2 4 5 6] 3{3}  [1 2 4 5 6]*) | ([1 2 4 5 6]* 3{1} [1 2 4 5 6]{1} 3{3} [1 2 4 5 6]{5} [1 2 4 5 6] [1 2 4 5 6]{5} 3{5} [1 2 4 5 6]{5} [1 2 4 5 6] 3{10} [1 2 4 5 6]{5} [1 2 4 5 6] 3{10} [1 2 4 5 6]{5} [1 2 4 5 6] 3{11} [1 2 4 5 6]{4} [1 2 4 5 6] 3{12} [1 2 4 5 6]{3} [1 2 4 5 6] 3{14} [1 2 4 5 6]{1} [1 2 4 5 6] 3{14} [1 2 4 5 6]{1} [1 2 4 5 6] 3{14}  [1 2 4 5 6]*) | ([1 2 4 5 6]* 3{3} [1 2 4 5 6] [1 2 4 5 6]{12} 3{3} [1 2 4 5 6] [1 2 4 5 6]{11} 3{4} [1 2 4 5 6] [1 2 4 5 6]{10} 3{5} [1 2 4 5 6] [1 2 4 5 6]{6} 3{9} [1 2 4 5 6] [1 2 4 5 6]{6} 3{9} [1 2 4 5 6] [1 2 4 5 6]{6} 3{9} [1 2 4 5 6] [1 2 4 5 6]{7} 3{8} [1 2 4 5 6] [1 2 4 5 6]{6} 3{9} [1 2 4 5 6] [1 2 4 5 6]{8} 3{7} [1 2 4 5 6] [1 2 4 5 6]{8} 3{7} [1 2 4 5 6] [1 2 4 5 6]{8} 3{7} [1 2 4 5 6] [1 2 4 5 6]{8} 3{7} [1 2 4 5 6] [1 2 4 5 6]{8} 3{7}  [1 2 4 5 6]*) )",
    "( ([1 2 3 5 6]* 4{1} [1 2 3 5 6] [1 2 3 5 6]{14} 4{1} [1 2 3 5 6] [1 2 3 5 6]{14} 4{1} [1 2 3 5 6] [1 2 3 5 6]{12} 4{3} [1 2 3 5 6] [1 2 3 5 6]{11} 4{4} [1 2 3 5 6] [1 2 3 5 6]{10} 4{5} [1 2 3 5 6] [1 2 3 5 6]{10} 4{5} [1 2 3 5 6] [1 2 3 5 6]{2} 4{3} [1 2 3 5 6]{5} 4{5} [1 2 3 5 6] [1 2 3 5 6]{3} 4{2} [1 2 3 5 6]{1} 4{1} [1 2 3 5 6]{3} 4{5} [1 2 3 5 6] [1 2 3 5 6]{3} 4{12} [1 2 3 5 6] [1 2 3 5 6]{3} 4{12} [1 2 3 5 6] [1 2 3 5 6]{3} 4{2} [1 2 3 5 6]{6} 4{4} [1 2 3 5 6] [1 2 3 5 6]{3} 4{2} [1 2 3 5 6]{6} 4{4} [1 2 3 5 6] [1 2 3 5 6]{3} 4{2} [1 2 3 5 6]{8} 4{2} [1 2 3 5 6] [1 2 3 5 6]{3} 4{2} [1 2 3 5 6]{8} 4{2}  [1 2 3 5 6]*) | ([1 2 3 5 6]* 4{1} [1 2 3 5 6]{7} [1 2 3 5 6] 4{8} [1 2 3 5 6]{7} [1 2 3 5 6] 4{8} [1 2 3 5 6]{7} [1 2 3 5 6] [1 2 3 5 6]{4} 4{2} [1 2 3 5 6]{9} [1 2 3 5 6] [1 2 3 5 6]{4} 4{3} [1 2 3 5 6]{8} [1 2 3 5 6] [1 2 3 5 6]{4} 4{2} [1 2 3 5 6]{9} [1 2 3 5 6] [1 2 3 5 6]{4} 4{2} [1 2 3 5 6]{9} [1 2 3 5 6] [1 2 3 5 6]{4} 4{2} [1 2 3 5 6]{9} [1 2 3 5 6] [1 2 3 5 6]{4} 4{6} [1 2 3 5 6]{5} [1 2 3 5 6] [1 2 3 5 6]{2} 4{9} [1 2 3 5 6]{4} [1 2 3 5 6] [1 2 3 5 6]{2} 4{10} [1 2 3 5 6]{3} [1 2 3 5 6] 4{12} [1 2 3 5 6]{3} [1 2 3 5 6] 4{15}  [1 2 3 5 6]*) | ([1 2 3 5 6]* 4{2} [1 2 3 5 6]{8} 4{2} [1 2 3 5 6]{3} [1 2 3 5 6] 4{2} [1 2 3 5 6]{8} 4{2} [1 2 3 5 6]{3} [1 2 3 5 6] 4{4} [1 2 3 5 6]{6} 4{2} [1 2 3 5 6]{3} [1 2 3 5 6] 4{4} [1 2 3 5 6]{6} 4{2} [1 2 3 5 6]{3} [1 2 3 5 6] 4{12} [1 2 3 5 6]{3} [1 2 3 5 6] 4{12} [1 2 3 5 6]{3} [1 2 3 5 6] 4{5} [1 2 3 5 6]{3} 4{1} [1 2 3 5 6]{1} 4{2} [1 2 3 5 6]{3} [1 2 3 5 6] 4{5} [1 2 3 5 6]{5} 4{3} [1 2 3 5 6]{2} [1 2 3 5 6] 4{5} [1 2 3 5 6]{10} [1 2 3 5 6] 4{5} [1 2 3 5 6]{10} [1 2 3 5 6] 4{4} [1 2 3 5 6]{11} [1 2 3 5 6] 4{3} [1 2 3 5 6]{12} [1 2 3 5 6] 4{1} [1 2 3 5 6]{14} [1 2 3 5 6] 4{1} [1 2 3 5 6]{14} [1 2 3 5 6] 4{1}  [1 2 3 5 6]*) | ([1 2 3 5 6]* 4{15} [1 2 3 5 6] [1 2 3 5 6]{3} 4{12} [1 2 3 5 6] [1 2 3 5 6]{3} 4{10} [1 2 3 5 6]{2} [1 2 3 5 6] [1 2 3 5 6]{4} 4{9} [1 2 3 5 6]{2} [1 2 3 5 6] [1 2 3 5 6]{5} 4{6} [1 2 3 5 6]{4} [1 2 3 5 6] [1 2 3 5 6]{9} 4{2} [1 2 3 5 6]{4} [1 2 3 5 6] [1 2 3 5 6]{9} 4{2} [1 2 3 5 6]{4} [1 2 3 5 6] [1 2 3 5 6]{9} 4{2} [1 2 3 5 6]{4} [1 2 3 5 6] [1 2 3 5 6]{8} 4{3} [1 2 3 5 6]{4} [1 2 3 5 6] [1 2 3 5 6]{9} 4{2} [1 2 3 5 6]{4} [1 2 3 5 6] [1 2 3 5 6]{7} 4{8} [1 2 3 5 6] [1 2 3 5 6]{7} 4{8} [1 2 3 5 6] [1 2 3 5 6]{7} 4{1}  [1 2 3 5 6]*) | ([1 2 3 5 6]* 4{1} [1 2 3 5 6]{14} [1 2 3 5 6] 4{1} [1 2 3 5 6]{14} [1 2 3 5 6] 4{1} [1 2 3 5 6]{14} [1 2 3 5 6] 4{3} [1 2 3 5 6]{12} [1 2 3 5 6] 4{4} [1 2 3 5 6]{11} [1 2 3 5 6] 4{5} [1 2 3 5 6]{10} [1 2 3 5 6] 4{5} [1 2 3 5 6]{10} [1 2 3 5 6] 4{5} [1 2 3 5 6]{5} 4{3} [1 2 3 5 6]{2} [1 2 3 5 6] 4{5} [1 2 3 5 6]{3} 4{1} [1 2 3 5 6]{1} 4{2} [1 2 3 5 6]{3} [1 2 3 5 6] 4{12} [1 2 3 5 6]{3} [1 2 3 5 6] 4{12} [1 2 3 5 6]{3} [1 2 3 5 6] 4{4} [1 2 3 5 6]{6} 4{2} [1 2 3 5 6]{3} [1 2 3 5 6] 4{4} [1 2 3 5 6]{6} 4{2} [1 2 3 5 6]{3} [1 2 3 5 6] 4{2} [1 2 3 5 6]{8} 4{2} [1 2 3 5 6]{3} [1 2 3 5 6] 4{2} [1 2 3 5 6]{8} 4{2}  [1 2 3 5 6]*) | ([1 2 3 5 6]* 4{1} [1 2 3 5 6]{7} [1 2 3 5 6] [1 2 3 5 6]{7} 4{8} [1 2 3 5 6] [1 2 3 5 6]{7} 4{8} [1 2 3 5 6] [1 2 3 5 6]{9} 4{2} [1 2 3 5 6]{4} [1 2 3 5 6] [1 2 3 5 6]{8} 4{3} [1 2 3 5 6]{4} [1 2 3 5 6] [1 2 3 5 6]{9} 4{2} [1 2 3 5 6]{4} [1 2 3 5 6] [1 2 3 5 6]{9} 4{2} [1 2 3 5 6]{4} [1 2 3 5 6] [1 2 3 5 6]{9} 4{2} [1 2 3 5 6]{4} [1 2 3 5 6] [1 2 3 5 6]{5} 4{6} [1 2 3 5 6]{4} [1 2 3 5 6] [1 2 3 5 6]{4} 4{9} [1 2 3 5 6]{2} [1 2 3 5 6] [1 2 3 5 6]{3} 4{10} [1 2 3 5 6]{2} [1 2 3 5 6] [1 2 3 5 6]{3} 4{12} [1 2 3 5 6] 4{15}  [1 2 3 5 6]*) | ([1 2 3 5 6]* 4{2} [1 2 3 5 6]{8} 4{2} [1 2 3 5 6] [1 2 3 5 6]{3} 4{2} [1 2 3 5 6]{8} 4{2} [1 2 3 5 6] [1 2 3 5 6]{3} 4{2} [1 2 3 5 6]{6} 4{4} [1 2 3 5 6] [1 2 3 5 6]{3} 4{2} [1 2 3 5 6]{6} 4{4} [1 2 3 5 6] [1 2 3 5 6]{3} 4{12} [1 2 3 5 6] [1 2 3 5 6]{3} 4{12} [1 2 3 5 6] [1 2 3 5 6]{3} 4{2} [1 2 3 5 6]{1} 4{1} [1 2 3 5 6]{3} 4{5} [1 2 3 5 6] [1 2 3 5 6]{2} 4{3} [1 2 3 5 6]{5} 4{5} [1 2 3 5 6] [1 2 3 5 6]{10} 4{5} [1 2 3 5 6] [1 2 3 5 6]{10} 4{5} [1 2 3 5 6] [1 2 3 5 6]{11} 4{4} [1 2 3 5 6] [1 2 3 5 6]{12} 4{3} [1 2 3 5 6] [1 2 3 5 6]{14} 4{1} [1 2 3 5 6] [1 2 3 5 6]{14} 4{1} [1 2 3 5 6] [1 2 3 5 6]{14} 4{1}  [1 2 3 5 6]*) | ([1 2 3 5 6]* 4{15} [1 2 3 5 6] 4{12} [1 2 3 5 6]{3} [1 2 3 5 6] [1 2 3 5 6]{2} 4{10} [1 2 3 5 6]{3} [1 2 3 5 6] [1 2 3 5 6]{2} 4{9} [1 2 3 5 6]{4} [1 2 3 5 6] [1 2 3 5 6]{4} 4{6} [1 2 3 5 6]{5} [1 2 3 5 6] [1 2 3 5 6]{4} 4{2} [1 2 3 5 6]{9} [1 2 3 5 6] [1 2 3 5 6]{4} 4{2} [1 2 3 5 6]{9} [1 2 3 5 6] [1 2 3 5 6]{4} 4{2} [1 2 3 5 6]{9} [1 2 3 5 6] [1 2 3 5 6]{4} 4{3} [1 2 3 5 6]{8} [1 2 3 5 6] [1 2 3 5 6]{4} 4{2} [1 2 3 5 6]{9} [1 2 3 5 6] 4{8} [1 2 3 5 6]{7} [1 2 3 5 6] 4{8} [1 2 3 5 6]{7} [1 2 3 5 6] [1 2 3 5 6]{7} 4{1}  [1 2 3 5 6]*) )",
    "( ([1 2 3 4 6]* 5{6} [1 2 3 4 6]{4} [1 2 3 4 6] [1 2 3 4 6]{5} 5{6} [1 2 3 4 6]{4} [1 2 3 4 6] [1 2 3 4 6]{5} 5{8} [1 2 3 4 6]{2} [1 2 3 4 6] [1 2 3 4 6]{5} 5{8}  [1 2 3 4 6]*) | ([1 2 3 4 6]* 5{4} [1 2 3 4 6]{11} [1 2 3 4 6] 5{4} [1 2 3 4 6]{11} [1 2 3 4 6] 5{4} [1 2 3 4 6]{11} [1 2 3 4 6] 5{4} [1 2 3 4 6]{11} [1 2 3 4 6] 5{4} [1 2 3 4 6]{11} [1 2 3 4 6] 5{4} [1 2 3 4 6]{11} [1 2 3 4 6] 5{2} [1 2 3 4 6]{13} [1 2 3 4 6] 5{2}  [1 2 3 4 6]*) | ([1 2 3 4 6]* 5{8} [1 2 3 4 6]{5} [1 2 3 4 6] [1 2 3 4 6]{2} 5{8} [1 2 3 4 6]{5} [1 2 3 4 6] [1 2 3 4 6]{4} 5{6} [1 2 3 4 6]{5} [1 2 3 4 6] [1 2 3 4 6]{4} 5{6}  [1 2 3 4 6]*) | ([1 2 3 4 6]* 5{2} [1 2 3 4 6] [1 2 3 4 6]{13} 5{2} [1 2 3 4 6] [1 2 3 4 6]{11} 5{4} [1 2 3 4 6] [1 2 3 4 6]{11} 5{4} [1 2 3 4 6] [1 2 3 4 6]{11} 5{4} [1 2 3 4 6] [1 2 3 4 6]{11} 5{4} [1 2 3 4 6] [1 2 3 4 6]{11} 5{4} [1 2 3 4 6] [1 2 3 4 6]{11} 5{4}  [1 2 3 4 6]*) | ([1 2 3 4 6]* 5{6} [1 2 3 4 6]{5} [1 2 3 4 6] [1 2 3 4 6]{4} 5{6} [1 2 3 4 6]{5} [1 2 3 4 6] [1 2 3 4 6]{2} 5{8} [1 2 3 4 6]{5} [1 2 3 4 6] [1 2 3 4 6]{2} 5{8}  [1 2 3 4 6]*) | ([1 2 3 4 6]* 5{4} [1 2 3 4 6] [1 2 3 4 6]{11} 5{4} [1 2 3 4 6] [1 2 3 4 6]{11} 5{4} [1 2 3 4 6] [1 2 3 4 6]{11} 5{4} [1 2 3 4 6] [1 2 3 4 6]{11} 5{4} [1 2 3 4 6] [1 2 3 4 6]{11} 5{4} [1 2 3 4 6] [1 2 3 4 6]{13} 5{2} [1 2 3 4 6] [1 2 3 4 6]{13} 5{2}  [1 2 3 4 6]*) | ([1 2 3 4 6]* 5{8} [1 2 3 4 6]{2} [1 2 3 4 6] [1 2 3 4 6]{5} 5{8} [1 2 3 4 6]{2} [1 2 3 4 6] [1 2 3 4 6]{5} 5{6} [1 2 3 4 6]{4} [1 2 3 4 6] [1 2 3 4 6]{5} 5{6}  [1 2 3 4 6]*) | ([1 2 3 4 6]* 5{2} [1 2 3 4 6]{13} [1 2 3 4 6] 5{2} [1 2 3 4 6]{13} [1 2 3 4 6] 5{4} [1 2 3 4 6]{11} [1 2 3 4 6] 5{4} [1 2 3 4 6]{11} [1 2 3 4 6] 5{4} [1 2 3 4 6]{11} [1 2 3 4 6] 5{4} [1 2 3 4 6]{11} [1 2 3 4 6] 5{4} [1 2 3 4 6]{11} [1 2 3 4 6] 5{4}  [1 2 3 4 6]*) )",
];
